(set-info :smt-lib-version 2.7)
(set-logic QF_SLIA)
(set-info :source |
Generated by: Mikhail Starchak
Generated on: 2025-09-25
Application: Linear theory of string length and string-to-number conversion
Target solver: Chrobelias
Main example without regular constraints from 
Parosh Aziz Abdulla, Mohamed Faouzi Atig, Yu-Fang Chen, Bui Phi Diep, Julian Dolby, 
Petr Janků, Hsin-Hung Lin, Lukáš Holík, and Wei-Cheng Wu. 2020. 
Efficient handling of string-number conversion. In Proceedings of PLDI 2020. 
ACM, New York, NY, USA, 943–957. https://doi.org/10.1145/3385412.3386034
|)
(set-info :license "https://img.shields.io/badge/license-MIT-blue")
(set-info :category "crafted")
(set-info :status sat)

(declare-fun x () String)
(declare-fun y () String)

(assert (= (str.to.int x) (str.to.int y)))
(assert (< 1 (str.len x)))
(assert (< (str.len x) (str.len y)))
(assert (< 1000 (str.len y)))
(check-sat)
(get-model)

(exit)